50 998
374 547 671 583 161 525 758 709 635 614 892 1098 660 134 470 404 684 595 989 843 106 500 566 132 1019 712 239 635 483 436 127 909 996 835 1011 699 728 527 1033 1066 276 1054 354 880 379 777 689 929 507 470 
274 447 571 483 61 425 658 609 535 514 792 998 560 34 370 304 584 495 889 743 6 400 466 32 919 612 139 535 383 336 27 809 896 735 911 599 628 427 933 966 176 954 254 780 279 677 589 829 407 370 
